(declare-fun ExpandObjSwitcher () Real)
(declare-fun Constructed_Argument_t () String)
(declare-fun Constructed_Argument_2_t () String)
(declare-fun CreateAsClass () Bool)
(declare-fun Constructed_Argument_2_elements_decoder_0_t () String)
(declare-fun Constructed_Argument_2_elements_decoder_1_t () String)
(declare-fun Constructed_Argument_2_elements_charset_2_t () String)
(declare-fun Constructed_Argument_2_elements_charset_3_t () String)
(declare-fun Constructed_Argument_2_elements_allowDots_4_t () String)
(declare-fun Constructed_Argument_2_elements_allowPrototypes_5_t () String)
(declare-fun Constructed_Argument_2_elements_allowPrototypes_6_t () String)
(declare-fun Constructed_Argument_2_elements_allowPrototypes_6_Array_Length () Int)
(declare-fun Constructed_Argument_2_elements_arrayLimit_7_t () String)
(declare-fun Constructed_Argument_2_elements_charsetSentinel_8_t () String)
(declare-fun Constructed_Argument_2_elements_comma_9_t () String)
(declare-fun Constructed_Argument_2_elements_decoder_10_t () String)
(declare-fun Constructed_Argument_2_elements_delimiter_11_t () String)
(assert (= ExpandObjSwitcher 0.0))
(assert (not (= Constructed_Argument_t "string")))
(assert (not (= Constructed_Argument_t "number")))
(assert (not (= Constructed_Argument_t "boolean")))
(assert (not (= Constructed_Argument_t "object")))
(assert (not (= Constructed_Argument_t "array_number")))
(assert (not (= Constructed_Argument_t "array_string")))
(assert (not (= Constructed_Argument_t "array_bool")))
(assert (not (= Constructed_Argument_t "null")))
(assert (= Constructed_Argument_2_t "object"))
(assert (not CreateAsClass))
(assert (not (= Constructed_Argument_2_elements_decoder_0_t "string")))
(assert (not (= Constructed_Argument_2_elements_decoder_0_t "number")))
(assert (not (= Constructed_Argument_2_elements_decoder_0_t "boolean")))
(assert (not (= Constructed_Argument_2_elements_decoder_0_t "object")))
(assert (not (= Constructed_Argument_2_elements_decoder_0_t "array_number")))
(assert (not (= Constructed_Argument_2_elements_decoder_0_t "array_string")))
(assert (not (= Constructed_Argument_2_elements_decoder_0_t "array_bool")))
(assert (not (= Constructed_Argument_2_elements_decoder_0_t "null")))
(assert (not (= Constructed_Argument_2_elements_decoder_1_t "string")))
(assert (not (= Constructed_Argument_2_elements_decoder_1_t "number")))
(assert (not (= Constructed_Argument_2_elements_decoder_1_t "boolean")))
(assert (not (= Constructed_Argument_2_elements_decoder_1_t "object")))
(assert (not (= Constructed_Argument_2_elements_decoder_1_t "array_number")))
(assert (not (= Constructed_Argument_2_elements_decoder_1_t "array_string")))
(assert (not (= Constructed_Argument_2_elements_decoder_1_t "array_bool")))
(assert (not (= Constructed_Argument_2_elements_decoder_1_t "null")))
(assert (not (= Constructed_Argument_2_elements_charset_2_t "string")))
(assert (not (= Constructed_Argument_2_elements_charset_2_t "number")))
(assert (not (= Constructed_Argument_2_elements_charset_2_t "boolean")))
(assert (not (= Constructed_Argument_2_elements_charset_2_t "object")))
(assert (not (= Constructed_Argument_2_elements_charset_2_t "array_number")))
(assert (not (= Constructed_Argument_2_elements_charset_2_t "array_string")))
(assert (not (= Constructed_Argument_2_elements_charset_2_t "array_bool")))
(assert (not (= Constructed_Argument_2_elements_charset_2_t "null")))
(assert (not (= Constructed_Argument_2_elements_charset_3_t "string")))
(assert (not (= Constructed_Argument_2_elements_charset_3_t "number")))
(assert (not (= Constructed_Argument_2_elements_charset_3_t "boolean")))
(assert (not (= Constructed_Argument_2_elements_charset_3_t "object")))
(assert (not (= Constructed_Argument_2_elements_charset_3_t "array_number")))
(assert (not (= Constructed_Argument_2_elements_charset_3_t "array_string")))
(assert (not (= Constructed_Argument_2_elements_charset_3_t "array_bool")))
(assert (not (= Constructed_Argument_2_elements_charset_3_t "null")))
(assert (not (= Constructed_Argument_2_elements_allowDots_4_t "string")))
(assert (not (= Constructed_Argument_2_elements_allowDots_4_t "number")))
(assert (not (= Constructed_Argument_2_elements_allowDots_4_t "boolean")))
(assert (not (= Constructed_Argument_2_elements_allowDots_4_t "object")))
(assert (not (= Constructed_Argument_2_elements_allowDots_4_t "array_number")))
(assert (not (= Constructed_Argument_2_elements_allowDots_4_t "array_string")))
(assert (not (= Constructed_Argument_2_elements_allowDots_4_t "array_bool")))
(assert (not (= Constructed_Argument_2_elements_allowDots_4_t "null")))
(assert (= Constructed_Argument_2_elements_allowPrototypes_5_t "boolean"))
(assert (= Constructed_Argument_2_elements_allowPrototypes_6_t "array_number"))
(assert (>= Constructed_Argument_2_elements_allowPrototypes_6_Array_Length 0))
(assert (not (= Constructed_Argument_2_elements_arrayLimit_7_t "string")))
(assert (not (= Constructed_Argument_2_elements_arrayLimit_7_t "number")))
(assert (not (= Constructed_Argument_2_elements_arrayLimit_7_t "boolean")))
(assert (not (= Constructed_Argument_2_elements_arrayLimit_7_t "object")))
(assert (not (= Constructed_Argument_2_elements_arrayLimit_7_t "array_number")))
(assert (not (= Constructed_Argument_2_elements_arrayLimit_7_t "array_string")))
(assert (not (= Constructed_Argument_2_elements_arrayLimit_7_t "array_bool")))
(assert (not (= Constructed_Argument_2_elements_arrayLimit_7_t "null")))
(assert (not (= Constructed_Argument_2_elements_charsetSentinel_8_t "string")))
(assert (not (= Constructed_Argument_2_elements_charsetSentinel_8_t "number")))
(assert (not (= Constructed_Argument_2_elements_charsetSentinel_8_t "boolean")))
(assert (not (= Constructed_Argument_2_elements_charsetSentinel_8_t "object")))
(assert (not (= Constructed_Argument_2_elements_charsetSentinel_8_t "array_number")))
(assert (not (= Constructed_Argument_2_elements_charsetSentinel_8_t "array_string")))
(assert (not (= Constructed_Argument_2_elements_charsetSentinel_8_t "array_bool")))
(assert (not (= Constructed_Argument_2_elements_charsetSentinel_8_t "null")))
(assert (not (= Constructed_Argument_2_elements_comma_9_t "string")))
(assert (not (= Constructed_Argument_2_elements_comma_9_t "number")))
(assert (not (= Constructed_Argument_2_elements_comma_9_t "boolean")))
(assert (not (= Constructed_Argument_2_elements_comma_9_t "object")))
(assert (not (= Constructed_Argument_2_elements_comma_9_t "array_number")))
(assert (not (= Constructed_Argument_2_elements_comma_9_t "array_string")))
(assert (not (= Constructed_Argument_2_elements_comma_9_t "array_bool")))
(assert (not (= Constructed_Argument_2_elements_comma_9_t "null")))
(assert (not (= Constructed_Argument_2_elements_decoder_10_t "string")))
(assert (not (= Constructed_Argument_2_elements_decoder_10_t "number")))
(assert (not (= Constructed_Argument_2_elements_decoder_10_t "boolean")))
(assert (not (= Constructed_Argument_2_elements_decoder_10_t "object")))
(assert (not (= Constructed_Argument_2_elements_decoder_10_t "array_number")))
(assert (not (= Constructed_Argument_2_elements_decoder_10_t "array_string")))
(assert (not (= Constructed_Argument_2_elements_decoder_10_t "array_bool")))
(assert (not (= Constructed_Argument_2_elements_decoder_10_t "null")))
(assert (not (= Constructed_Argument_2_elements_delimiter_11_t "string")))
(assert (not (= Constructed_Argument_2_elements_delimiter_11_t "number")))
(assert (= Constructed_Argument_2_elements_delimiter_11_t "boolean"))
(check-sat)
